41513.2
39866.9
39866.9
39626.5
39626.5
39626.5
39626.5
38884.2
38807.3
38807.3
38621.2
38508.3
38508.3
38508.3
37884.6
37884.6
37734.4
37734.4
37505.4
37505.4
36300.5
36300.5
36300.5
36300.5
36300.5
36300.5
36300.5
36300.5
36300.5
36300.5
35951.9
35951.9
35673.3
35673.3
35673.3
35673.3
35673.3
35673.3
35240.8
35240.8
34295.9
34295.9
34295.9
34295.9
34295.9
34295.9
34295.9
34295.9
33944.3
33944.3
33944.3
33944.3
33944.3
33944.3
33944.3
33544.5
33544.5
33544.5
33544.5
33127.2
33127.2
33127.2
33127.2
33127.2
33101.2
33101.2
33101.2
33101.2
33101.2
33066.3
33066.3
33066.3
32531.6
32531.6
32474.8
32131.4
32131.4
32131.4
32131.4
31383.8
31383.8
31383.8
31383.8
31383.8
31383.8
31383.8
31383.8
31383.8
31383.8
31383.8
31383.8
31383.8
30580.6
30580.6
30580.6
30580.6
30580.6
30580.6
30580.6
30580.6
